NAME: line_80_2
TYPE: TSP
COMMENT: line_80_2
DIMENSION: 80
EDGE_WEIGHT_TYPE: EUC_2D
NODE_COORD_SECTION
1 0.0 470.0
2 0.0 305.0
3 0.0 59.0
4 0.0 687.0
5 0.0 580.0
6 0.0 705.0
7 0.0 554.0
8 0.0 633.0
9 0.0 305.0
10 0.0 51.0
11 0.0 235.0
12 0.0 563.0
13 0.0 540.0
14 0.0 509.0
15 0.0 700.0
16 0.0 563.0
17 0.0 241.0
18 0.0 143.0
19 0.0 615.0
20 0.0 186.0
21 0.0 58.0
22 0.0 716.0
23 0.0 117.0
24 0.0 583.0
25 0.0 665.0
26 0.0 339.0
27 0.0 367.0
28 0.0 233.0
29 0.0 240.0
30 0.0 684.0
31 0.0 735.0
32 0.0 399.0
33 0.0 329.0
34 0.0 211.0
35 0.0 559.0
36 0.0 271.0
37 0.0 556.0
38 0.0 762.0
39 0.0 468.0
40 0.0 468.0
41 0.0 206.0
42 0.0 260.0
43 0.0 639.0
44 0.0 565.0
45 0.0 679.0
46 0.0 374.0
47 0.0 488.0
48 0.0 175.0
49 0.0 287.0
50 0.0 88.0
51 0.0 212.0
52 0.0 439.0
53 0.0 127.0
54 0.0 5.0
55 0.0 337.0
56 0.0 388.0
57 0.0 283.0
58 0.0 113.0
59 0.0 469.0
60 0.0 472.0
61 0.0 100.0
62 0.0 588.0
63 0.0 443.0
64 0.0 338.0
65 0.0 711.0
66 0.0 529.0
67 0.0 327.0
68 0.0 730.0
69 0.0 451.0
70 0.0 306.0
71 0.0 557.0
72 0.0 766.0
73 0.0 764.0
74 0.0 709.0
75 0.0 163.0
76 0.0 342.0
77 0.0 719.0
78 0.0 576.0
79 0.0 562.0
80 0.0 146.0
